; aio-pika :: corpus-study/repo_src/aio-pika/aio_pika/robust_connection.py :: EVENT 'RobustConnection.__connection_close_event' :: naive encoding (verdict: sat)
; Generated by snf-pipeline (encoder.py) -- run with any
; SMT-LIB2-compliant solver, e.g. `z3 aio-pika__corpus-study_repo_src_aio-pika_aio_pika_robust_connection.py__RobustConnection.__connection_close_event__naive.smt2`
; benchmark generated from python API
(set-info :status unknown)
(declare-fun ewake2_0 () Bool)
(assert
 (let (($x27 (not ewake2_0)))
(or $x27)))
(check-sat)
